branch-and-cut/resultados/I080/i080-044.sol
1366
8
1 40
4 22
40 19
40 3
2 19
40 22
6 19
40 5
